(declare-const a Real)
(declare-const b Real)
(declare-const c Real)
(assert (= (+ a b c) 3))
(assert (> a 0))
(assert (> b 0))
(assert (> c 0))
(assert (not (<= (+ (* -3 (pow (+ (* 6 (pow a 2)) (* 6 (pow b 2)) (* 6 (pow c 2)) (* 3 a b) (* 3 a c) (* 3 b c)) (pow 2 -1))) (* a (pow 3 (/ 1 2))) (* b (pow 3 (/ 1 2))) (* c (pow 3 (/ 1 2)))) 0)))
(check-sat)
(get-model)
(exit)el)
(exit)